
Gurobi 9.0.1 (linux64) logging started Fri May  1 09:14:07 2020

Gurobi Optimizer version 9.0.1 build v9.0.1rc0 (linux64)
Optimize a model with 6413 rows, 4412 columns and 26194 nonzeros
Model fingerprint: 0x07e57032
Variable types: 0 continuous, 4412 integer (4352 binary)
Coefficient statistics:
  Matrix range     [1e+00, 2e+01]
  Objective range  [3e+00, 1e+02]
  Bounds range     [1e+00, 1e+00]
  RHS range        [1e+00, 2e+01]

User MIP start produced solution with objective 998 (0.01s)
Loaded user MIP start with objective 998

Presolve removed 4954 rows and 1877 columns
Presolve time: 0.07s
Presolved: 1459 rows, 2535 columns, 11190 nonzeros
Variable types: 0 continuous, 2535 integer (2505 binary)

Root relaxation: objective 6.491333e+02, 776 iterations, 0.04 seconds

    Nodes    |    Current Node    |     Objective Bounds      |     Work
 Expl Unexpl |  Obj  Depth IntInf | Incumbent    BestBd   Gap | It/Node Time

     0     0  649.13333    0   67  998.00000  649.13333  35.0%     -    0s
     0     0  782.00000    0   80  998.00000  782.00000  21.6%     -    0s
     0     0  782.50000    0   75  998.00000  782.50000  21.6%     -    0s
     0     0  785.00000    0   96  998.00000  785.00000  21.3%     -    0s
     0     0  786.00000    0   94  998.00000  786.00000  21.2%     -    0s
     0     0  786.00000    0   96  998.00000  786.00000  21.2%     -    0s
     0     0  786.00000    0   94  998.00000  786.00000  21.2%     -    0s
     0     0  786.00000    0   95  998.00000  786.00000  21.2%     -    0s
     0     0  786.00000    0   99  998.00000  786.00000  21.2%     -    0s
     0     0  786.00000    0   84  998.00000  786.00000  21.2%     -    0s
     0     0  786.00000    0   43  998.00000  786.00000  21.2%     -    0s
     0     0  786.00000    0   49  998.00000  786.00000  21.2%     -    0s
     0     0  786.46667    0   82  998.00000  786.46667  21.2%     -    0s
     0     0  786.46977    0   94  998.00000  786.46977  21.2%     -    0s
     0     0  793.00000    0   93  998.00000  793.00000  20.5%     -    0s
     0     0  793.00000    0   94  998.00000  793.00000  20.5%     -    0s
     0     0  793.00000    0   92  998.00000  793.00000  20.5%     -    0s
     0     0  793.00000    0   99  998.00000  793.00000  20.5%     -    0s
     0     0  793.00000    0   87  998.00000  793.00000  20.5%     -    1s
     0     0  793.00000    0  107  998.00000  793.00000  20.5%     -    1s
     0     0  793.00000    0   87  998.00000  793.00000  20.5%     -    1s
     0     0  793.00000    0   86  998.00000  793.00000  20.5%     -    1s
     0     2  793.00000    0   81  998.00000  793.00000  20.5%     -    1s
   511   457  906.00000   23   86  998.00000  793.00000  20.5%  26.6    5s
   552   486  819.28571   18  139  998.00000  793.27273  20.5%  47.1   10s
   749   596  818.64286   21  196  998.00000  793.27273  20.5%  49.8   15s
  1074   786  989.00000   52  168  998.00000  793.33333  20.5%  52.2   20s
H 1101   615                     864.0000000  793.33333  8.18%  51.4   20s
H 1317   519                     827.0000000  793.60000  4.04%  46.2   24s
  1481   562  817.00000   43  149  827.00000  794.00000  3.99%  44.7   25s
  2706  1158  815.00000   20  156  827.00000  797.00000  3.63%  41.7   30s
  3500  1637  819.00000   42  143  827.00000  798.08333  3.50%  42.2   35s
  4016  1885  824.00000   27  214  827.00000  799.00000  3.39%  44.3   40s
  4443  2113  807.76122   16  192  827.00000  799.90476  3.28%  47.0   45s
  4867  2332  823.00000   39  162  827.00000  800.28190  3.23%  48.7   50s
  5242  2525  803.50000   19  138  827.00000  801.00000  3.14%  49.2   55s
  5734  2753  806.00000   20  254  827.00000  802.37500  2.98%  51.3   60s
H 5762  1672                     820.0000000  802.52941  2.13%  51.6   60s
H 6087   469                     814.0000000  803.33588  1.31%  53.1   64s
  6158   431  809.78873   21  178  814.00000  805.00000  1.11%  53.7   65s
H 6386   150                     813.0000000  809.00000  0.49%  54.5   67s
  6569   147  811.01427   26  178  813.00000  811.00000  0.25%  54.9   70s
  6881   241  811.00000   39   75  813.00000  811.00000  0.25%  57.2   75s
H 6937     4                     811.0000000  811.00000  0.00%  57.8   75s

Cutting planes:
  Learned: 11
  Gomory: 17
  Cover: 42
  Implied bound: 336
  MIR: 14
  StrongCG: 5
  Flow cover: 70
  Inf proof: 3
  Zero half: 21
  RLT: 6
  Relax-and-lift: 1

Explored 6938 nodes (406557 simplex iterations) in 75.99 seconds
Thread count was 1 (of 40 available processors)

Solution count 7: 811 813 814 ... 998

Optimal solution found (tolerance 1.00e-04)
Best objective 8.110000000000e+02, best bound 8.110000000000e+02, gap 0.0000%

User-callback calls 41985, time in user-callback 0.04 sec
